NAME : cutter.35825.tour
COMMENT : Length = 35825
COMMENT : Found by LKH [Keld Helsgaun] Wed Jan  2 23:23:07 2013
TYPE : TOUR
DIMENSION : 126
TOUR_SECTION
1
18
50
76
3
109
69
49
14
13
34
32
112
24
22
74
26
63
84
38
122
60
78
92
96
107
5
126
43
47
48
58
55
68
37
91
88
15
19
12
83
100
123
98
90
118
80
25
45
115
17
97
30
28
57
31
117
10
89
81
66
16
46
77
67
65
11
6
72
95
110
23
39
36
20
8
113
125
53
33
41
27
75
86
52
114
71
7
54
94
116
119
124
85
35
103
2
79
4
99
120
106
62
111
70
82
9
73
102
42
105
64
56
87
21
108
59
29
104
101
93
61
44
51
40
121
-1
EOF
